c CNF file corresponding to a (partial) station packing problem.
p cnf 2990 229
1 2 3 4 5 6 7 8 9 10 11 12 13 14 0
-1 -2 0
-1 -3 0
-1 -4 0
-1 -5 0
-1 -6 0
-1 -7 0
-1 -8 0
-1 -9 0
-1 -10 0
-1 -11 0
-1 -12 0
-1 -13 0
-1 -14 0
-2 -3 0
-2 -4 0
-2 -5 0
-2 -6 0
-2 -7 0
-2 -8 0
-2 -9 0
-2 -10 0
-2 -11 0
-2 -12 0
-2 -13 0
-2 -14 0
-3 -4 0
-3 -5 0
-3 -6 0
-3 -7 0
-3 -8 0
-3 -9 0
-3 -10 0
-3 -11 0
-3 -12 0
-3 -13 0
-3 -14 0
-4 -5 0
-4 -6 0
-4 -7 0
-4 -8 0
-4 -9 0
-4 -10 0
-4 -11 0
-4 -12 0
-4 -13 0
-4 -14 0
-5 -6 0
-5 -7 0
-5 -8 0
-5 -9 0
-5 -10 0
-5 -11 0
-5 -12 0
-5 -13 0
-5 -14 0
-6 -7 0
-6 -8 0
-6 -9 0
-6 -10 0
-6 -11 0
-6 -12 0
-6 -13 0
-6 -14 0
-7 -8 0
-7 -9 0
-7 -10 0
-7 -11 0
-7 -12 0
-7 -13 0
-7 -14 0
-8 -9 0
-8 -10 0
-8 -11 0
-8 -12 0
-8 -13 0
-8 -14 0
-9 -10 0
-9 -11 0
-9 -12 0
-9 -13 0
-9 -14 0
-10 -11 0
-10 -12 0
-10 -13 0
-10 -14 0
-11 -12 0
-11 -13 0
-11 -14 0
-12 -13 0
-12 -14 0
-13 -14 0
2974 2975 2976 2977 2978 2979 2980 2981 2982 2983 2984 2985 2986 2987 2988 2989 2990 0
-2974 -2975 0
-2974 -2976 0
-2974 -2977 0
-2974 -2978 0
-2974 -2979 0
-2974 -2980 0
-2974 -2981 0
-2974 -2982 0
-2974 -2983 0
-2974 -2984 0
-2974 -2985 0
-2974 -2986 0
-2974 -2987 0
-2974 -2988 0
-2974 -2989 0
-2974 -2990 0
-2975 -2976 0
-2975 -2977 0
-2975 -2978 0
-2975 -2979 0
-2975 -2980 0
-2975 -2981 0
-2975 -2982 0
-2975 -2983 0
-2975 -2984 0
-2975 -2985 0
-2975 -2986 0
-2975 -2987 0
-2975 -2988 0
-2975 -2989 0
-2975 -2990 0
-2976 -2977 0
-2976 -2978 0
-2976 -2979 0
-2976 -2980 0
-2976 -2981 0
-2976 -2982 0
-2976 -2983 0
-2976 -2984 0
-2976 -2985 0
-2976 -2986 0
-2976 -2987 0
-2976 -2988 0
-2976 -2989 0
-2976 -2990 0
-2977 -2978 0
-2977 -2979 0
-2977 -2980 0
-2977 -2981 0
-2977 -2982 0
-2977 -2983 0
-2977 -2984 0
-2977 -2985 0
-2977 -2986 0
-2977 -2987 0
-2977 -2988 0
-2977 -2989 0
-2977 -2990 0
-2978 -2979 0
-2978 -2980 0
-2978 -2981 0
-2978 -2982 0
-2978 -2983 0
-2978 -2984 0
-2978 -2985 0
-2978 -2986 0
-2978 -2987 0
-2978 -2988 0
-2978 -2989 0
-2978 -2990 0
-2979 -2980 0
-2979 -2981 0
-2979 -2982 0
-2979 -2983 0
-2979 -2984 0
-2979 -2985 0
-2979 -2986 0
-2979 -2987 0
-2979 -2988 0
-2979 -2989 0
-2979 -2990 0
-2980 -2981 0
-2980 -2982 0
-2980 -2983 0
-2980 -2984 0
-2980 -2985 0
-2980 -2986 0
-2980 -2987 0
-2980 -2988 0
-2980 -2989 0
-2980 -2990 0
-2981 -2982 0
-2981 -2983 0
-2981 -2984 0
-2981 -2985 0
-2981 -2986 0
-2981 -2987 0
-2981 -2988 0
-2981 -2989 0
-2981 -2990 0
-2982 -2983 0
-2982 -2984 0
-2982 -2985 0
-2982 -2986 0
-2982 -2987 0
-2982 -2988 0
-2982 -2989 0
-2982 -2990 0
-2983 -2984 0
-2983 -2985 0
-2983 -2986 0
-2983 -2987 0
-2983 -2988 0
-2983 -2989 0
-2983 -2990 0
-2984 -2985 0
-2984 -2986 0
-2984 -2987 0
-2984 -2988 0
-2984 -2989 0
-2984 -2990 0
-2985 -2986 0
-2985 -2987 0
-2985 -2988 0
-2985 -2989 0
-2985 -2990 0
-2986 -2987 0
-2986 -2988 0
-2986 -2989 0
-2986 -2990 0
-2987 -2988 0
-2987 -2989 0
-2987 -2990 0
-2988 -2989 0
-2988 -2990 0
-2989 -2990 0
